
Gurobi 9.1.2 (win64, Java) logging started Mon Nov  8 23:35:14 2021

Academic license - for non-commercial use only - expires 2022-10-30
Gurobi Optimizer version 9.1.2 build v9.1.2rc0 (win64)
Thread count: 6 physical cores, 12 logical processors, using up to 12 threads
Optimize a model with 110 rows, 1000 columns and 2000 nonzeros
Model fingerprint: 0xe56d0995
Variable types: 0 continuous, 1000 integer (1000 binary)
Coefficient statistics:
  Matrix range     [1e+00, 1e+03]
  Objective range  [7e+00, 1e+03]
  Bounds range     [1e+00, 1e+00]
  RHS range        [1e+00, 3e+03]
Found heuristic solution: objective 26596.000000
Presolve time: 0.00s
Presolved: 110 rows, 1000 columns, 2000 nonzeros
Variable types: 0 continuous, 1000 integer (1000 binary)
Presolved: 110 rows, 1000 columns, 2000 nonzeros


Root relaxation: objective 4.142945e+04, 176 iterations, 0.00 seconds

    Nodes    |    Current Node    |     Objective Bounds      |     Work
 Expl Unexpl |  Obj  Depth IntInf | Incumbent    BestBd   Gap | It/Node Time

     0     0 41429.4497    0   11 26596.0000 41429.4497  55.8%     -    0s
H    0     0                    40168.000000 41429.4497  3.14%     -    0s
H    0     0                    41012.000000 41429.4497  1.02%     -    0s
     0     0 41429.4497    0   18 41012.0000 41429.4497  1.02%     -    0s
H    0     0                    41078.000013 41429.4497  0.86%     -    0s
     0     0 41429.4497    0   19 41078.0000 41429.4497  0.86%     -    0s
H    0     0                    41131.000000 41429.4497  0.73%     -    0s
     0     0 41409.5896    0   12 41131.0000 41409.5896  0.68%     -    0s
H    0     0                    41177.000000 41409.5896  0.56%     -    0s
     0     0 41409.5896    0   18 41177.0000 41409.5896  0.56%     -    0s
     0     0 41407.9666    0   29 41177.0000 41407.9666  0.56%     -    0s
     0     0 41407.9666    0   29 41177.0000 41407.9666  0.56%     -    0s
     0     0 41407.9666    0   27 41177.0000 41407.9666  0.56%     -    0s
     0     0 41407.9666    0   13 41177.0000 41407.9666  0.56%     -    0s
     0     0 41407.9666    0   15 41177.0000 41407.9666  0.56%     -    0s
     0     0 41407.9666    0   22 41177.0000 41407.9666  0.56%     -    0s
     0     0 41407.9666    0   26 41177.0000 41407.9666  0.56%     -    0s
     0     0 41390.1546    0   32 41177.0000 41390.1546  0.52%     -    0s
H    0     0                    41195.000000 41390.1546  0.47%     -    0s
     0     0 41390.1546    0   32 41195.0000 41390.1546  0.47%     -    0s
     0     0 41390.1546    0   27 41195.0000 41390.1546  0.47%     -    0s
     0     0 41390.1546    0   27 41195.0000 41390.1546  0.47%     -    0s
     0     0 41390.1546    0   13 41195.0000 41390.1546  0.47%     -    0s
     0     0 41390.1546    0   15 41195.0000 41390.1546  0.47%     -    0s
     0     0 41390.1546    0   15 41195.0000 41390.1546  0.47%     -    0s
     0     0 41390.1546    0    8 41195.0000 41390.1546  0.47%     -    0s
     0     2 41390.1546    0    8 41195.0000 41390.1546  0.47%     -    0s
H   31    39                    41241.000000 41390.1546  0.36%  10.2    0s
H   33    39                    41249.000000 41390.1546  0.34%   9.7    0s
H 1398  1148                    41282.000000 41389.8391  0.26%   6.1    1s
H 3116  2443                    41288.000000 41386.6875  0.24%   7.8    2s
H11607  6652                    41318.000000 41386.0001  0.16%   5.6    3s
*23438  1375             266    41386.000000 41386.0001  0.00%   5.0    3s

Cutting planes:
  Gomory: 5
  Cover: 86
  StrongCG: 2
  Flow cover: 1
  Inf proof: 2
  RLT: 3

Explored 23714 nodes (123117 simplex iterations) in 3.82 seconds
Thread count was 12 (of 12 available processors)

Solution count 10: 41386 41318 41288 ... 41078

Optimal solution found (tolerance 1.00e-04)
Best objective 4.138600000000e+04, best bound 4.138600000000e+04, gap 0.0000%
